
Gurobi 11.0.3 (linux64) logging started Fri Nov 22 21:08:54 2024

Set parameter LogFile to value "/home/yihong/Coding/OR_SUC/SUC_results_bigM100000_thread4/case24_ieee_rts_theta0.1_epsilon0.025_gurobi_seed430000_num_gen100_N_WDR100_load_scaling_factor1_proposed_T8quadra_cost.txt"
Set parameter TimeLimit to value 3600
Gurobi Optimizer version 11.0.3 build v11.0.3rc0 (linux64 - "Ubuntu 20.04.6 LTS")

CPU model: AMD EPYC 7532 32-Core Processor, instruction set [SSE2|AVX|AVX2]
Thread count: 64 physical cores, 128 logical processors, using up to 4 threads

Optimize a model with 16982 rows, 10021 columns and 235066 nonzeros
Model fingerprint: 0x0da3c1fc
Model has 800 quadratic constraints
Variable types: 9221 continuous, 800 integer (800 binary)
Coefficient statistics:
  Matrix range     [3e-04, 3e+03]
  QMatrix range    [2e-03, 8e-03]
  QLMatrix range   [8e-03, 6e+01]
  Objective range  [1e+00, 1e+00]
  Bounds range     [1e+00, 1e+00]
  RHS range        [1e+00, 9e+03]
Presolve removed 13934 rows and 4508 columns
Presolve time: 0.07s
Presolved: 3048 rows, 5513 columns, 18301 nonzeros
Presolved model has 800 quadratic constraint(s)
Variable types: 4713 continuous, 800 integer (800 binary)

Root relaxation: objective 1.227646e+04, 2520 iterations, 0.04 seconds (0.05 work units)

    Nodes    |    Current Node    |     Objective Bounds      |     Work
 Expl Unexpl |  Obj  Depth IntInf | Incumbent    BestBd   Gap | It/Node Time

H    0     0                    144750.93154 12276.4648  91.5%     -    0s
*    0     0               0    144750.93154 12276.4648  91.5%     -    0s
     0     0 18793.0199    0  440 144750.932 18793.0199  87.0%     -    0s
     0     0 127277.404    0   77 144750.932 127277.404  12.1%     -    0s
     0     0 127284.102    0   17 144750.932 127284.102  12.1%     -    0s
     0     0 127347.955    0   19 144750.932 127347.955  12.0%     -    0s
     0     0 127348.172    0   23 144750.932 127348.172  12.0%     -    0s
     0     0 127350.595    0   17 144750.932 127350.595  12.0%     -    0s
     0     0 127350.632    0   23 144750.932 127350.632  12.0%     -    0s
     0     0 127350.930    0   21 144750.932 127350.930  12.0%     -    0s
     0     0 127351.105    0   21 144750.932 127351.105  12.0%     -    0s
     0     2 127351.105    0   21 144750.932 127351.105  12.0%     -    0s
H  376   362                    127748.22714 127352.402  0.31%   7.3    1s
*  376   362              98    127748.22714 127352.402  0.31%   7.3    1s
H  882   667                    127748.22515 127353.547  0.31%   8.2    2s
H  889   639                    127422.12125 127353.547  0.05%   8.1    2s

Cutting planes:
  Implied bound: 16
  MIR: 13
  Flow cover: 3
  RLT: 13

Explored 889 nodes (18856 simplex iterations) in 2.90 seconds (2.85 work units)
Thread count was 4 (of 128 available processors)

Solution count 3: 127422 127748 144751 

Optimal solution found (tolerance 1.00e-03)
Warning: max constraint violation (6.8706e-09) exceeds tolerance
Best objective 1.274221212503e+05, best bound 1.273535473042e+05, gap 0.0538%
